##TITLE=Azobenzene
##JCAMP-DX=4.24
##DATA TYPE=UV/VIS SPECTRUM
##ORIGIN=INSTITUTE OF ENERGY PROBLEMS OF CHEMICAL PHYSICS, RAS
##OWNER=INEP CP RAS, NIST OSRD
Collection (C) 2007 copyright by the U.S. Secretary of Commerce
on behalf of the United States of America. All rights reserved.
##CAS REGISTRY NO=103-33-3
##MOLFORM=C12H10N2
##SOURCE REFERENCE=RAS UV No. 610
##$NIST SQUIB=1952HER/HEN1145-1151
##$NIST SOURCE=TSGMTE
##SPECTROMETER/DATA SYSTEM=n.i.g.
##XUNITS=Wavelength (nm)
##YUNITS=Logarithm epsilon
##XFACTOR=1.000000
##YFACTOR=1.000000
##FIRSTX=229.2556
##LASTX=496.6825
##FIRSTY=4.03804
##MAXX=496.683
##MINX=229.256
##MAXY=4.23398
##MINY=2.21477
##NPOINTS=1108
##$REF AUTHOR=den Hertog, H.J.; Henkens, C.H.; van Roon, J.H.
##$REF TITLE=Reactivity of 4-nitropyridine-n-oxide (III) Reduction in alkaline medium
##$REF JOURNAL=Recl. Trav. Chim. Pays-Bas
##$REF VOLUME=71
##$REF PAGE=1145-1151
##$REF DATE=1952
##XYPOINTS=(XY..XY)
229.2556,4.038039
229.2556,4.038039
229.4995,4.038481
229.7539,4.038921
230.0296,4.039358
230.0296,4.039358
230.4224,4.038802
230.8364,4.038243
231.2610,4.037682
234.6470,4.029555
234.7207,4.026628
234.7837,4.023704
234.8255,4.020783
234.8255,4.020783
235.0031,4.019052
235.1700,4.017323
235.3157,4.015598
235.3157,4.015598
235.3893,4.012672
237.4127,3.993862
237.5365,3.986144
237.6399,3.978537
237.7330,3.970986
238.4230,3.925466
238.4804,3.933782
238.5385,3.942205
238.5969,3.950683
239.6240,3.884711
239.6240,3.884711
239.6876,3.893934
239.7516,3.903211
239.8163,3.912595
239.9465,3.882955
240.2691,3.881198
240.4010,3.851800
240.4645,3.861014
240.5281,3.870228
240.5916,3.879441
240.5916,3.879441
241.3590,3.817400
241.4863,3.821999
241.6140,3.826652
241.7424,3.831413
242.1878,3.792006
242.1878,3.792006
242.1995,3.793703
242.2112,3.795400
242.2229,3.797098
242.2229,3.797098
242.3206,3.797395
242.3474,3.787680
242.4190,3.797800
242.4972,3.783463
242.5177,3.798259
242.6261,3.779304
242.6261,3.779304
242.7578,3.763744
242.8895,3.748184
243.0213,3.732624
243.4596,3.719922
243.5548,3.708055
243.6378,3.702124
243.7799,3.697045
244.8558,3.672821
244.8558,3.672821
244.8944,3.664803
244.9199,3.673124
244.9223,3.656786
244.9290,3.648774
245.0059,3.673531
245.1029,3.673990
245.8632,3.638655
245.9357,3.635558
245.9882,3.622125
245.9882,3.622125
245.9983,3.632571
246.0401,3.629641
246.0401,3.629641
246.0618,3.623811
246.0619,3.619198
246.1250,3.616274
246.1276,3.628726
246.1566,3.625493
246.1668,3.613353
246.2053,3.627921
246.2621,3.627174
246.2621,3.627174
247.4506,3.577682
247.4962,3.584300
247.5426,3.591026
247.5894,3.597806
249.7118,3.552032
249.8777,3.548604
250.0329,3.545178
250.1668,3.541756
251.9857,3.521283
252.0795,3.521266
252.1626,3.521251
252.2245,3.521240
252.2245,3.521240
252.6374,3.518991
253.0402,3.516797
253.4224,3.514716
254.8015,3.492864
255.4650,3.492270
256.1181,3.491731
256.7508,3.491304
256.7508,3.491304
256.7776,3.495184
256.7893,3.496881
256.8010,3.498578
256.8127,3.500275
257.0148,3.490043
257.2576,3.488786
257.4897,3.487531
257.4897,3.487531
257.6516,3.485327
257.7926,3.483180
257.9237,3.481142
257.9237,3.481142
258.0025,3.478952
258.0710,3.476818
258.1190,3.474796
258.2059,3.487404
258.6306,3.486852
259.0450,3.486356
259.4390,3.485971
259.4390,3.485971
259.6963,3.483740
259.9323,3.481513
260.1578,3.479288
260.6353,3.479204
261.0347,3.479618
261.4554,3.480029
261.8867,3.480438
261.8867,3.480438
261.9625,3.482438
262.0602,3.484543
262.1689,3.486699
264.7203,3.496199
264.9812,3.508093
265.1624,3.514606
265.4194,3.521322
266.5148,3.541519
266.5148,3.541519
266.6974,3.540525
266.7178,3.548109
266.8698,3.539586
266.9428,3.554804
267.0216,3.538759
267.1788,3.561550
269.0281,3.580157
269.0566,3.584288
269.0854,3.588473
269.1150,3.592765
269.1150,3.592765
269.1908,3.594766
269.2885,3.596870
269.3972,3.599027
270.9811,3.613797
271.0213,3.619625
271.0618,3.625507
271.1031,3.631496
271.1031,3.631496
271.2660,3.632268
271.4509,3.633143
271.6467,3.634070
271.6467,3.634070
271.6635,3.636504
271.6807,3.638991
271.6985,3.641587
271.6985,3.641587
272.0445,3.643224
272.3904,3.644862
272.7363,3.646500
272.7363,3.646500
272.9449,3.655688
273.1640,3.664874
273.4044,3.674056
275.4490,3.686316
275.5660,3.694307
275.7043,3.702293
275.8532,3.710278
275.8532,3.710278
276.2075,3.713128
276.5618,3.715978
276.9161,3.718828
276.9161,3.718828
277.0991,3.722509
277.3040,3.726294
277.5199,3.730131
277.5199,3.730131
277.5316,3.731828
277.5433,3.733525
277.5550,3.735223
277.5550,3.735223
277.6286,3.736909
277.7234,3.738591
277.8289,3.740272
277.8289,3.740272
277.9823,3.741468
278.1467,3.742715
278.3331,3.744067
279.0138,3.766522
279.1129,3.771917
279.2341,3.777417
279.3662,3.782968
279.3662,3.782968
279.4365,3.784169
279.5279,3.785367
279.6300,3.786562
281.2841,3.811515
281.3778,3.816120
281.4931,3.820775
281.6198,3.825536
281.6198,3.825536
281.7291,3.827530
281.8392,3.829633
281.9497,3.831789
283.5519,3.849226
283.6038,3.856742
283.6556,3.864259
283.7074,3.871775
285.5751,3.893049
285.7340,3.895035
285.9042,3.897126
286.0960,3.899268
286.0960,3.899268
286.2200,3.903382
286.3444,3.907550
286.4695,3.911825
288.5491,3.929177
288.6010,3.936694
288.6528,3.944210
288.7046,3.951726
289.1780,3.944117
289.6573,3.944031
289.9347,3.984523
290.1471,3.943944
290.3594,3.983971
290.6582,3.943853
290.7738,3.983475
290.9541,3.986770
291.0299,3.988770
291.1276,3.990875
291.1678,3.983090
291.1678,3.983090
291.2285,3.978296
291.2363,3.993031
291.2363,3.993031
291.2795,3.973612
291.3004,3.993335
291.3095,3.968985
291.3864,3.993742
291.4834,3.994201
294.0883,4.011460
294.2852,4.018959
294.4931,4.026511
294.7229,4.034167
296.8320,4.048843
297.2298,4.058006
297.6280,4.067223
298.0269,4.076548
299.9113,4.100247
299.9113,4.100247
299.9721,4.095452
299.9838,4.101762
300.0231,4.090768
300.0531,4.086141
300.0781,4.103382
300.1835,4.105053
300.1835,4.105053
300.2476,4.105357
300.3336,4.105764
300.4306,4.106223
300.4306,4.106223
300.5378,4.107904
300.6450,4.109584
300.7522,4.111264
303.3361,4.132411
303.7396,4.135971
303.9489,4.137571
304.1435,4.138579
304.1435,4.138579
304.2339,4.142699
304.3459,4.146869
304.4692,4.151145
305.9494,4.150881
305.9716,4.154105
305.9946,4.157437
306.0179,4.160823
306.0179,4.160823
306.6936,4.166124
307.4174,4.172226
307.8899,4.175784
307.8899,4.175784
307.9803,4.179904
308.0922,4.184073
308.2156,4.188349
311.2444,4.197764
311.5000,4.199904
311.7661,4.202041
312.0535,4.204175
312.0535,4.204175
312.1472,4.208771
312.2621,4.213363
312.3876,4.217953
312.7948,4.207684
313.1291,4.207625
313.4633,4.207566
313.7975,4.207506
316.4191,4.227189
316.5096,4.226697
316.5898,4.226260
316.6495,4.225935
316.6495,4.225935
316.7283,4.223745
316.7968,4.221611
316.8448,4.219588
317.6522,4.225756
318.0538,4.226485
318.4775,4.227318
318.9120,4.228203
318.9120,4.228203
319.4030,4.229815
319.9045,4.231425
320.4273,4.233031
320.4273,4.233031
320.9087,4.233260
321.4015,4.233595
321.9158,4.233980
321.9158,4.233980
322.0677,4.233153
322.2401,4.232214
322.4227,4.231220
322.4227,4.231220
323.0630,4.231906
323.7254,4.232697
324.3987,4.233539
326.8113,4.222914
327.3394,4.220923
327.7716,4.218895
328.4784,4.215092
328.4784,4.215092
328.5560,4.212480
328.6344,4.209975
328.7131,4.207525
329.2424,4.214956
329.5766,4.214897
329.9108,4.214837
330.2451,4.214778
332.0539,4.192850
332.0539,4.192850
332.0561,4.193165
332.0590,4.193587
332.0623,4.194063
332.3732,4.190618
332.6928,4.188439
333.0131,4.186368
333.0131,4.186368
333.0919,4.184178
333.1604,4.182044
333.2084,4.180021
335.6959,4.145592
335.7533,4.153908
335.8114,4.162331
335.8698,4.170809
336.2897,4.155440
336.4866,4.154461
336.7896,4.153463
337.4583,4.151591
337.9698,4.114843
338.0100,4.120671
338.0506,4.126553
338.0919,4.132543
339.8364,4.094362
340.0200,4.086318
340.2036,4.078274
340.3871,4.070230
340.3871,4.070230
340.4491,4.065607
340.5005,4.060985
340.5306,4.056367
340.5306,4.056367
340.7132,4.055373
340.8856,4.054434
340.9338,4.038574
340.9677,4.043495
341.0024,4.048524
341.0374,4.053607
341.0374,4.053607
341.9395,4.004165
341.9395,4.004165
341.9888,4.010037
342.0182,4.001976
342.0845,4.014929
342.0867,3.999841
342.1347,3.997819
342.3086,4.023035
342.3865,3.965001
342.3865,3.965001
342.4802,3.969597
342.5691,3.964007
342.5950,3.974189
342.7205,3.978779
342.7205,3.978779
342.7415,3.963068
342.8182,3.979077
342.8415,3.954724
342.8583,3.957158
342.8754,3.959645
342.8933,3.962241
342.8933,3.962241
342.9166,3.979482
343.0154,3.979941
343.2153,3.939607
343.2581,3.876481
343.2983,3.882309
343.3389,3.888191
343.3574,3.934528
343.3802,3.894181
343.4404,3.928597
343.5356,3.916730
343.9649,3.833386
344.0167,3.840902
344.0686,3.848419
344.1204,3.855935
344.2109,3.792801
344.2628,3.800326
344.3151,3.807906
344.3681,3.815593
345.0438,3.774931
345.0438,3.774931
345.0879,3.767712
345.1221,3.760603
345.1354,3.753552
345.1354,3.753552
345.2067,3.775702
345.2247,3.752637
345.3148,3.751830
345.3916,3.776578
345.4052,3.751076
345.5874,3.777505
346.1555,3.714286
346.3461,3.720878
346.5481,3.727577
346.7717,3.734325
346.9014,3.683808
346.9014,3.683808
346.9951,3.688404
347.0840,3.682813
347.1100,3.692996
347.2354,3.697586
347.2354,3.697586
347.2564,3.681874
347.3331,3.697883
347.3397,3.671106
347.3619,3.674330
347.3849,3.677662
347.4082,3.681047
347.4082,3.681047
347.4315,3.698288
347.5303,3.698747
348.0155,3.630445
348.0623,3.637234
348.1091,3.644023
348.1559,3.650812
348.8627,3.607717
348.9359,3.583671
348.9381,3.605042
348.9727,3.589014
349.0032,3.602423
349.0099,3.594411
349.0479,3.599916
349.0479,3.599916
349.4290,3.544255
349.4758,3.551044
349.5226,3.557833
349.5694,3.564623
350.1542,3.503828
350.1944,3.509656
350.2349,3.515538
350.2762,3.521528
350.6188,3.465937
350.6363,3.469755
350.6363,3.469755
350.6604,3.462972
350.7965,3.458317
350.8036,3.472953
350.9821,3.476258
351.1823,3.479612
351.1823,3.479612
351.2800,3.479909
351.3784,3.480314
351.4772,3.480773
351.5384,3.420314
351.5384,3.420314
351.5489,3.421841
351.5602,3.423475
351.5718,3.425164
351.5718,3.425164
351.7210,3.419320
351.7347,3.425935
351.8933,3.418381
351.9196,3.426810
351.9934,3.410037
352.0102,3.412471
352.0273,3.414958
352.0452,3.417554
352.0452,3.417554
352.1154,3.427737
352.1154,3.427737
352.1322,3.430171
352.1494,3.432658
352.1672,3.435254
352.6691,3.369376
352.7327,3.378598
352.7967,3.387875
352.8614,3.397259
353.8677,3.321339
353.9195,3.328855
353.9713,3.336371
354.0232,3.343888
354.3996,3.293200
354.4184,3.297207
354.4184,3.297207
354.4320,3.288915
354.4941,3.299208
354.5434,3.280677
354.5919,3.301312
354.7006,3.303469
354.9299,3.260459
354.9919,3.255836
355.0432,3.251214
355.0733,3.246596
355.0733,3.246596
355.2206,3.242272
355.3473,3.238060
355.4639,3.233903
355.7324,3.203510
355.7324,3.203510
355.8534,3.207202
355.8920,3.199184
355.9752,3.211001
356.0418,3.194967
356.0974,3.214855
356.1707,3.190808
356.9476,3.157897
356.9476,3.157897
356.9816,3.162818
357.0163,3.167847
357.0201,3.154800
357.0513,3.172930
357.0513,3.172930
357.0828,3.151813
357.1153,3.173233
357.1245,3.148884
357.2014,3.173641
357.2984,3.174100
357.8831,3.113305
357.8831,3.113305
357.8948,3.115003
357.9065,3.116700
357.9182,3.118397
357.9182,3.118397
358.2156,3.113246
358.2189,3.118344
358.5375,3.113189
358.5407,3.118286
358.7862,3.105619
358.8030,3.108053
358.8202,3.110540
358.8381,3.113136
358.8381,3.113136
358.8732,3.118227
358.8732,3.118227
358.9017,3.122358
358.9305,3.126543
358.9601,3.130836
359.4579,3.057433
359.5984,3.077800
359.5984,3.077800
359.6151,3.080233
359.6208,3.058204
359.6323,3.082721
359.6502,3.085316
359.7810,3.076805
359.8057,3.059079
359.9533,3.075866
360.0015,3.060006
360.0015,3.060006
360.0355,3.064928
360.0701,3.069957
360.1052,3.075039
360.1052,3.075039
360.2313,2.988054
360.2563,2.992959
360.2563,2.992959
360.2594,2.983140
360.3204,2.993262
360.3218,3.037130
360.3646,2.974004
360.4064,2.993669
360.4403,3.028621
360.5034,2.994129
360.5378,3.020170
360.6255,3.011829
361.1065,2.936001
361.1522,2.942619
361.1985,2.949346
361.2453,2.956126
362.2557,2.887730
362.3076,2.895255
362.3598,2.902834
362.4128,2.910522
362.7856,2.853649
362.7856,2.853649
362.8526,2.849762
362.8675,2.856547
362.9094,2.845930
362.9457,2.842211
362.9707,2.859442
363.0845,2.862335
363.7639,2.745931
363.7639,2.745931
363.7913,2.819241
363.8212,2.754247
363.8353,2.812022
363.8696,2.804913
363.8793,2.762670
363.8829,2.797861
363.9377,2.771148
363.9377,2.771148
364.0864,2.744183
364.1006,2.771919
364.2855,2.772794
364.4094,2.742490
364.4813,2.773721
364.7331,2.740904
364.7545,2.709341
364.7545,2.709341
364.7947,2.715169
364.8098,2.703756
364.8352,2.721051
364.8550,2.698228
364.8766,2.727041
364.8766,2.727041
364.8796,2.692811
364.9406,2.727344
365.0266,2.727751
365.1236,2.728210
366.0805,2.652056
366.1324,2.659581
366.1847,2.667160
366.2377,2.674847
366.9628,2.634420
367.0065,2.627138
367.0399,2.619912
367.0528,2.612798
367.0528,2.612798
367.1421,2.611883
367.2321,2.611076
367.3226,2.610322
367.7947,2.574795
367.7947,2.574795
367.8617,2.570908
367.8821,2.578493
367.9185,2.567077
367.9548,2.563357
367.9916,2.582295
368.1120,2.586149
368.7669,2.535538
368.7669,2.535538
368.7786,2.537235
368.7903,2.538932
368.8020,2.540629
368.9495,2.534543
369.1219,2.533604
369.1868,2.520169
369.2153,2.524300
369.2442,2.528484
369.2738,2.532777
369.2738,2.532777
369.6768,2.485942
369.6941,2.489733
369.6941,2.489733
369.7118,2.482034
369.7732,2.492219
369.8291,2.474658
369.8742,2.494808
369.9863,2.497450
370.3590,2.440577
370.3590,2.440577
370.4246,2.484748
370.4351,2.486275
370.4464,2.487909
370.4578,2.445909
370.4580,2.489598
370.5063,2.436253
370.5781,2.451292
370.6331,2.432041
370.7098,2.456780
370.7496,2.427884
370.7496,2.427884
370.8367,2.426907
370.9136,2.425985
370.9699,2.425174
371.3480,2.403744
371.4268,2.401554
371.4953,2.399420
371.5433,2.397397
371.5433,2.397397
371.5924,2.390906
371.6316,2.384524
371.6500,2.378200
371.9144,2.340282
372.0314,2.348273
372.1697,2.356259
372.3186,2.364244
372.3186,2.364244
372.3827,2.364547
372.4687,2.364955
372.5657,2.365414
372.5918,2.299863
372.6491,2.308179
372.7072,2.316602
372.7657,2.325080
373.7928,2.259108
373.8501,2.267424
373.9082,2.275848
373.9666,2.284325
375.7296,2.248811
375.8083,2.246621
375.8769,2.244487
375.9249,2.242464
375.9249,2.242464
376.2412,2.239810
376.5583,2.237263
376.8583,2.230951
376.8757,2.234770
376.8757,2.234770
376.8998,2.227986
377.0359,2.223331
377.6481,2.235846
378.1273,2.235761
378.6171,2.235674
379.1282,2.235583
380.5031,2.220045
380.5884,2.218815
380.6632,2.217588
380.7167,2.216365
381.4706,2.214774
381.9532,2.215174
382.4464,2.215572
382.9608,2.215966
382.9608,2.215966
383.2047,2.216660
383.4488,2.217408
383.6938,2.218263
383.6938,2.218263
383.8622,2.221632
384.0412,2.224999
384.2415,2.228362
384.2415,2.228362
384.5925,2.230736
384.9439,2.233164
385.2960,2.235700
385.2960,2.235700
385.4768,2.239067
385.6788,2.242429
385.8914,2.245790
385.8914,2.245790
385.9555,2.246093
386.0415,2.246501
386.1385,2.246960
387.2281,2.259390
387.4188,2.265982
387.6208,2.272681
387.8444,2.279430
389.3948,2.289350
389.3948,2.289350
389.4170,2.292574
389.4400,2.295906
389.4633,2.299291
389.4633,2.299291
389.5774,2.288355
389.6262,2.300062
389.7497,2.287417
389.8111,2.300938
389.9016,2.286590
390.0069,2.301865
390.0069,2.301865
390.0889,2.304763
390.1921,2.307658
390.3058,2.310551
390.3058,2.310551
390.3699,2.310854
390.4559,2.311262
390.5529,2.311721
392.6804,2.329064
392.7795,2.334459
392.9007,2.339959
393.0328,2.345510
393.0328,2.345510
393.1895,2.347181
393.3568,2.348851
393.5454,2.350516
393.5454,2.350516
393.6273,2.353415
393.7305,2.356310
393.8443,2.359203
395.4465,2.376640
395.4465,2.376640
395.4699,2.380034
395.4933,2.383429
395.5167,2.386823
395.5167,2.386823
395.6291,2.375645
395.8015,2.374706
395.8615,2.388290
395.9533,2.373879
396.2070,2.389865
396.5529,2.391494
396.5529,2.391494
396.5813,2.395625
396.6102,2.399810
396.6398,2.404102
398.7321,2.416354
398.9449,2.421531
399.1094,2.427418
399.3667,2.439061
400.4564,2.451491
400.5467,2.455611
400.6587,2.459780
400.7820,2.464056
400.7820,2.464056
400.9409,2.466042
401.1111,2.468134
401.3030,2.470276
401.3030,2.470276
401.4240,2.473967
401.5459,2.477767
401.6680,2.481621
403.7477,2.498972
403.8235,2.500973
403.9212,2.503078
404.0299,2.505234
404.0299,2.505234
404.1990,2.506903
404.3893,2.508569
404.5903,2.510232
404.5903,2.510232
404.6660,2.512233
404.7637,2.514338
404.8725,2.516494
406.9338,2.531179
407.1602,2.541164
407.4086,2.551253
407.6680,2.561394
410.2545,2.575985
410.3280,2.577671
410.4229,2.579354
410.5283,2.581034
410.5283,2.581034
410.6817,2.582230
410.8461,2.583477
411.0325,2.584829
411.0325,2.584829
411.0559,2.588223
411.0793,2.591618
411.1028,2.595012
411.1028,2.595012
411.1668,2.595316
411.2528,2.595723
411.3498,2.596182
413.4940,2.615950
413.5697,2.617951
413.6675,2.620055
413.7762,2.622212
413.7762,2.622212
413.8815,2.628505
414.0081,2.634794
414.1453,2.641082
416.7586,2.659553
416.9244,2.660746
417.1118,2.661989
417.3106,2.663339
417.3106,2.663339
417.3863,2.665339
417.4841,2.667444
417.5928,2.669600
417.5928,2.669600
417.6568,2.669904
417.7429,2.670311
417.8399,2.670770
421.4642,2.690275
421.4759,2.691972
421.4876,2.693670
421.4993,2.695367
421.4993,2.695367
421.8138,2.697325
422.1503,2.699387
422.4977,2.701501
422.4977,2.701501
422.4999,2.701815
422.5028,2.702238
422.5061,2.702714
426.1304,2.722218
426.2933,2.722990
426.4781,2.723865
426.6740,2.724792
426.6740,2.724792
426.7559,2.727691
426.8591,2.730586
426.9729,2.733478
426.9729,2.733478
427.4577,2.734192
427.9538,2.735012
428.4715,2.735882
428.4715,2.735882
428.5355,2.736186
428.6216,2.736593
428.7186,2.737052
431.3051,2.751644
431.9633,2.754925
432.6428,2.758203
433.3329,2.761479
433.3329,2.761479
433.3563,2.764874
433.3798,2.768268
433.4032,2.771663
436.1498,2.774816
436.5880,2.775961
437.0265,2.777159
437.4658,2.778466
437.4658,2.778466
438.6117,2.778262
439.7576,2.778058
440.9036,2.777855
440.9036,2.777855
441.0554,2.777027
441.2278,2.776089
441.4104,2.775094
441.4104,2.775094
442.3828,2.775407
443.3765,2.775716
444.3808,2.776022
444.3808,2.776022
444.4448,2.776326
444.5308,2.776733
444.6279,2.777192
444.6279,2.777192
444.8628,2.776350
445.1077,2.775399
445.3734,2.774389
445.3734,2.774389
445.8527,2.774304
446.3425,2.774217
446.8536,2.774126
450.2045,2.760907
450.2803,2.758295
450.3463,2.755793
450.3914,2.753348
450.3914,2.753348
450.5773,2.752838
450.7530,2.752384
450.9082,2.752042
450.9082,2.752042
450.9870,2.749852
451.0555,2.747718
451.1035,2.745696
451.1035,2.745696
451.2861,2.744701
451.4585,2.743762
451.6103,2.742935
454.0120,2.737653
454.3986,2.734662
454.7787,2.732266
455.4781,2.728410
458.8038,2.711554
458.9864,2.710559
459.1588,2.709620
459.3107,2.708793
459.3107,2.708793
459.4534,2.703814
459.5412,2.698574
459.6494,2.688584
462.5930,2.685633
462.6483,2.680048
462.6935,2.674519
462.7181,2.669102
462.7181,2.669102
462.8977,2.667686
463.0676,2.666379
463.2165,2.665130
463.2165,2.665130
463.2986,2.663416
463.3700,2.661704
463.4202,2.659995
465.2701,2.637090
465.3671,2.637549
465.4531,2.637956
465.5172,2.638259
465.5172,2.638259
466.0751,2.635984
466.6335,2.633763
467.1575,2.626558
467.1692,2.628255
467.1809,2.629952
467.1926,2.631650
467.1926,2.631650
468.4989,2.606170
468.7034,2.606044
469.0209,2.605358
469.7236,2.603525
469.7236,2.603525
470.3089,2.600337
470.8738,2.597260
471.4284,2.594239
473.7849,2.582411
473.7849,2.582411
473.8553,2.579008
473.9155,2.575662
473.9478,2.583182
473.9551,2.572427
473.9551,2.572427
474.1294,2.570220
474.1327,2.584057
474.2934,2.568069
474.3285,2.584984
474.4185,2.563362
474.4240,2.564162
474.4302,2.565069
474.4369,2.566030
474.4369,2.566030
475.9719,2.539053
476.0623,2.538560
476.1425,2.538123
476.2022,2.537798
476.2022,2.537798
476.5069,2.533446
476.8123,2.529202
477.1180,2.525011
479.6390,2.495432
479.6975,2.503918
479.7560,2.512404
479.8145,2.520891
482.7420,2.474002
482.9657,2.471778
483.1894,2.469553
483.1894,2.469553
483.2652,2.466941
483.3312,2.464439
483.3763,2.461994
485.2262,2.439088
485.2547,2.443219
485.2836,2.447404
485.3131,2.451697
487.6037,2.423372
487.8363,2.422431
488.0696,2.421598
488.3032,2.420820
488.3032,2.420820
488.4775,2.418613
488.6415,2.416462
488.7850,2.414422
488.7850,2.414422
488.8169,2.405443
488.8386,2.396520
488.8398,2.387709
490.7934,2.379836
490.8754,2.378122
490.9468,2.376410
490.9970,2.374701
490.9970,2.374701
491.3178,2.372954
491.5394,2.349358
491.6284,2.371262
491.6480,2.356136
491.7780,2.362910
491.9185,2.369682
491.9185,2.369682
492.9760,2.342790
492.9760,2.342790
493.0636,2.341876
493.1413,2.341071
493.1418,2.343984
493.1981,2.340323
493.1981,2.340323
493.3293,2.345227
493.4270,2.333971
493.6346,2.327622
493.8316,2.321275
493.8316,2.321275
494.1866,2.319342
494.3385,2.318515
495.7852,2.313402
495.9324,2.309078
496.0592,2.304866
496.1757,2.300709
496.1757,2.300709
496.3583,2.299714
496.5307,2.298776
496.5956,2.285340
496.6241,2.289471
496.6529,2.293656
496.6825,2.297949
496.6825,2.297949
##END=
