##TITLE=Pentacene
##JCAMP-DX=4.24
##DATA TYPE=UV/VIS SPECTRUM
##ORIGIN=INSTITUTE OF ENERGY PROBLEMS OF CHEMICAL PHYSICS, RAS
##OWNER=INEP CP RAS, NIST OSRD
Collection (C) 2007 copyright by the U.S. Secretary of Commerce
on behalf of the United States of America. All rights reserved.
##CAS REGISTRY NO=135-48-8
##MOLFORM=C22H14
##MP=> 300 dec
##SOURCE REFERENCE=RAS UV No. 19821
##$NIST SQUIB=1967ZANe4/1
##$NIST SOURCE=TYUGLMTE
##SPECTROMETER/DATA SYSTEM=Zeiss M4Q
##XUNITS=Wavelength (nm)
##YUNITS=Logarithm epsilon
##XFACTOR=1.0
##YFACTOR=1.0
##FIRSTX=285.24
##LASTX=622.27
##FIRSTY=4.669
##MAXX=622.27
##MINX=285.24
##MAXY=5.177
##MINY=1.9
##NPOINTS=415
##$REF AUTHOR=Zander, M.
##$REF JOURNAL=UV atlas of organic compounds
##$REF VOLUME=3
##$REF PAGE=E4/1
##$REF DATE=1967
##XYPOINTS=(XY..XY)
285.24,4.669
285.42,4.671
285.60,4.671
285.77,4.673
285.95,4.675
286.13,4.677
286.31,4.677
286.49,4.680
286.67,4.682
286.84,4.684
287.02,4.684
287.20,4.686
287.38,4.688
287.92,4.697
288.46,4.707
289.01,4.725
289.55,4.738
290.10,4.750
290.65,4.755
291.21,4.759
291.76,4.757
292.32,4.750
292.88,4.742
293.44,4.738
294.00,4.725
294.56,4.716
295.13,4.712
295.70,4.705
296.27,4.703
296.85,4.703
297.42,4.705
298.00,4.722
298.58,4.755
299.17,4.791
299.75,4.821
300.34,4.868
300.98,4.935
301.52,5.018
302.11,5.091
302.71,5.153
303.31,5.171
303.91,5.177
304.52,5.166
305.12,5.130
305.76,5.081
306.34,5.014
306.96,4.937
307.57,4.845
308.24,4.758
308.81,4.680
309.24,4.624
309.66,4.552
310.13,4.483
310.66,4.410
311.01,4.350
311.48,4.277
311.90,4.225
312.25,4.192
312.61,4.172
312.81,4.159
313.23,4.144
313.87,4.122
314.52,4.103
315.16,4.092
315.81,4.073
316.47,4.062
317.12,4.051
317.78,4.041
318.44,4.032
319.10,4.028
319.77,4.019
320.44,4.006
321.11,4.002
321.78,3.996
322.46,3.989
323.14,3.985
323.82,3.979
324.51,3.976
325.20,3.972
325.89,3.968
326.58,3.964
327.28,3.961
327.98,3.959
328.69,3.957
329.39,3.957
330.10,3.961
330.82,3.961
331.53,3.961
332.25,3.961
332.96,3.957
333.70,3.949
334.43,3.944
335.16,3.938
335.89,3.929
336.63,3.919
337.37,3.908
337.92,3.895
338.43,3.882
339.00,3.866
339.44,3.848
339.83,3.832
340.14,3.817
340.37,3.801
340.72,3.788
341.13,3.764
341.54,3.735
342.14,3.681
342.65,3.661
343.16,3.655
343.68,3.657
344.19,3.661
344.78,3.670
345.42,3.685
346.05,3.700
346.50,3.713
347.01,3.727
347.52,3.740
347.84,3.749
348.34,3.767
348.85,3.781
349.42,3.801
349.96,3.816
350.49,3.828
351.03,3.839
351.56,3.846
352.16,3.841
352.73,3.830
353.43,3.812
353.94,3.792
354.38,3.769
354.95,3.740
355.37,3.711
355.92,3.678
356.47,3.646
357.02,3.616
357.58,3.573
358.14,3.535
358.70,3.500
359.20,3.471
359.82,3.436
360.38,3.408
360.95,3.378
361.52,3.342
362.09,3.310
362.66,3.282
363.23,3.258
363.81,3.222
364.38,3.198
364.96,3.179
365.54,3.157
366.12,3.136
366.71,3.106
367.29,3.087
367.88,3.067
368.47,3.048
369.06,3.033
369.66,3.016
370.25,3.005
370.85,2.986
371.45,2.975
372.05,2.962
372.65,2.952
373.26,2.943
373.87,2.932
374.48,2.924
375.09,2.917
375.70,2.909
376.31,2.900
376.93,2.892
377.45,2.885
378.17,2.877
378.79,2.870
379.42,2.864
380.05,2.857
380.62,2.852
381.31,2.847
381.94,2.842
382.58,2.836
383.22,2.829
383.86,2.825
384.50,2.819
385.14,2.814
385.79,2.809
386.44,2.804
387.09,2.795
387.74,2.787
388.36,2.779
388.97,2.769
389.71,2.759
390.38,2.750
391.04,2.742
391.66,2.733
392.38,2.724
393.05,2.718
393.72,2.712
394.40,2.703
395.07,2.694
395.75,2.690
396.44,2.690
397.12,2.692
397.81,2.694
398.50,2.699
399.19,2.703
399.89,2.714
400.58,2.724
401.28,2.737
401.98,2.752
402.69,2.761
403.27,2.768
404.07,2.776
404.82,2.780
405.53,2.782
406.25,2.780
406.89,2.778
407.69,2.772
408.41,2.763
409.15,2.750
409.87,2.739
410.60,2.731
411.34,2.722
412.07,2.712
412.81,2.701
413.56,2.690
414.30,2.679
415.05,2.666
415.59,2.655
416.27,2.642
417.31,2.619
418.07,2.609
418.64,2.605
419.60,2.598
420.36,2.596
421.14,2.596
421.91,2.602
422.68,2.621
423.46,2.664
424.24,2.709
425.03,2.742
425.65,2.767
426.61,2.791
427.40,2.810
428.20,2.823
429.00,2.834
429.80,2.840
430.60,2.842
431.41,2.842
432.22,2.840
433.04,2.834
433.67,2.827
434.35,2.816
435.14,2.797
435.70,2.776
436.15,2.761
436.72,2.743
437.17,2.729
437.99,2.712
438.41,2.703
439.24,2.692
440.09,2.677
440.93,2.669
441.78,2.658
442.63,2.647
443.48,2.636
444.34,2.624
445.20,2.611
445.84,2.605
446.93,2.596
447.80,2.589
448.68,2.587
449.55,2.587
450.56,2.589
451.32,2.594
452.25,2.605
453.10,2.619
453.99,2.636
454.57,2.648
455.25,2.661
455.93,2.679
456.72,2.696
458.07,2.731
459.44,2.761
460.22,2.778
461.28,2.795
462.21,2.817
463.14,2.832
464.08,2.851
465.02,2.868
465.88,2.885
466.90,2.902
467.86,2.915
468.81,2.928
469.80,2.935
470.73,2.939
471.70,2.941
472.67,2.941
473.64,2.939
474.62,2.934
475.60,2.927
476.41,2.921
477.22,2.914
478.16,2.905
479.11,2.898
480.57,2.892
481.58,2.889
482.42,2.888
483.61,2.885
484.63,2.885
485.65,2.887
486.68,2.889
487.71,2.892
488.75,2.900
489.79,2.911
491.12,2.944
492.13,2.976
492.94,2.997
494.00,3.031
495.07,3.061
496.14,3.095
497.21,3.117
498.29,3.138
499.37,3.166
500.46,3.192
501.55,3.222
502.65,3.235
503.75,3.254
504.85,3.271
505.97,3.295
507.08,3.301
508.20,3.310
509.33,3.312
510.46,3.312
511.60,3.310
512.74,3.293
513.88,3.271
515.04,3.228
516.19,3.190
517.36,3.168
518.52,3.149
519.69,3.140
520.87,3.134
522.06,3.132
523.24,3.132
524.44,3.132
525.64,3.134
526.84,3.140
528.05,3.147
529.31,3.160
530.50,3.179
531.69,3.203
532.95,3.237
534.19,3.275
535.43,3.325
536.50,3.384
538.15,3.473
539.20,3.526
540.47,3.580
541.74,3.612
542.95,3.627
544.31,3.638
545.60,3.644
546.90,3.648
548.21,3.648
549.52,3.642
550.83,3.627
552.19,3.601
553.37,3.569
554.55,3.530
556.10,3.474
557.51,3.423
558.74,3.385
560.23,3.338
561.28,3.294
562.74,3.243
564.36,3.194
565.75,3.164
567.14,3.151
568.55,3.142
569.96,3.136
571.37,3.134
572.80,3.134
574.23,3.134
575.84,3.139
577.41,3.160
578.38,3.191
579.56,3.238
581.11,3.321
582.75,3.410
584.57,3.503
586.29,3.592
587.44,3.638
588.94,3.687
590.46,3.732
591.98,3.749
593.51,3.760
595.04,3.760
596.59,3.751
598.14,3.736
600.09,3.677
601.69,3.555
602.90,3.439
604.04,3.314
605.39,3.186
606.65,3.058
607.40,2.985
608.34,2.893
609.75,2.750
610.95,2.626
611.86,2.527
612.97,2.408
614.20,2.265
614.97,2.185
616.02,2.127
617.68,2.050
620.04,1.965
622.27,1.900
##END=
